Optimal - objective value 16905.00000000
      0 x_0_0                    1                       0
     11 x_1_3                    1                       0
     21 x_2_5                    1                       0
     30 x_3_6                    1                       0
     39 x_4_7                    1                       0
     44 x_5_4                    1                       0
     50 x_6_2                    1                       0
     57 x_7_1                    1                       0
     66 y_0_0_1_3                1                     871
     75 y_0_0_2_5                1                     884
     79 y_0_0_6_2                1                    2546
     85 y_0_0_7_1                1                    2214
    377 y_1_3_3_6                1                    2232
    385 y_1_3_4_7                1                    1496
    388 y_1_3_6_2                1                    1395
    394 y_1_3_7_1                1                     752
    562 y_4_7_7_1                1                    3572
    597 y_5_4_7_1                1                     943
